(set-info :source |printed by MathSAT|)
(declare-fun bump () Bool)
(declare-fun call_voiture.toofast () Bool)
(declare-fun speed () Int)
(declare-fun dist () Int)
(declare-fun call_voiture.move () Bool)
(declare-fun toofast () Bool)
(declare-fun time () Int)
(declare-fun call_voiture.flby2 () Bool)
(declare-fun _OK_ () Bool)
(declare-fun stop () Bool)
(declare-fun call_voiture.second () Bool)
(declare-fun call_voiture.meter () Bool)
(declare-fun call_voiture.dist () Int)
(declare-fun call_voiture.flby3 () Bool)
(declare-fun env () Bool)
(declare-fun call_Sofar.flby () Bool)
(declare-fun call_Sofar.Sofar () Bool)
(declare-fun move () Bool)
(declare-fun call_voiture.stop () Bool)
(declare-fun call_voiture.ite2 () Int)
(declare-fun call_voiture.flby4 () Int)
(declare-fun second () Bool)
(declare-fun param_s () Bool)
(declare-fun param_m () Bool)
(declare-fun call_voiture.time () Int)
(declare-fun call_voiture.flby5 () Int)
(declare-fun call_voiture.speed () Int)
(declare-fun call_excludes2.excludes () Bool)
(declare-fun call_voiture.flby6 () Int)
(declare-fun call_voiture.flby () Bool)
(declare-fun call_voiture.ite3 () Int)
(declare-fun meter () Bool)
(declare-fun call_voiture.bump () Bool)
(define-fun .def_405 () Bool (= call_Sofar.flby call_Sofar.Sofar))
(define-fun .def_401 () Bool (and param_s param_m))
(define-fun .def_402 () Bool (not .def_401))
(define-fun .def_403 () Bool (= call_excludes2.excludes .def_402))
(define-fun .def_397 () Bool (= call_voiture.flby call_voiture.meter))
(define-fun .def_395 () Bool (= call_voiture.flby2 call_voiture.second))
(define-fun .def_392 () Bool (= call_voiture.flby3 call_voiture.move))
(define-fun .def_389 () Bool (= call_voiture.ite3 0))
(define-fun .def_385 () Bool (not call_voiture.move))
(define-fun .def_386 () Bool (and call_voiture.second .def_385))
(define-fun .def_388 () Bool (not .def_386))
(define-fun .def_390 () Bool (or .def_388 .def_389))
(define-fun .def_384 () Bool (= call_voiture.ite2 call_voiture.ite3))
(define-fun .def_387 () Bool (or .def_384 .def_386))
(define-fun .def_391 () Bool (and .def_387 .def_390))
(define-fun .def_393 () Bool (and .def_391 .def_392))
(define-fun .def_380 () Bool (= call_voiture.flby6 call_voiture.time))
(define-fun .def_378 () Bool (= call_voiture.flby5 call_voiture.speed))
(define-fun .def_376 () Bool (= call_voiture.flby4 call_voiture.dist))
(define-fun .def_373 () Bool (= call_voiture.dist 10))
(define-fun .def_374 () Bool (= call_voiture.bump .def_373))
(define-fun .def_370 () Bool (<= 4 call_voiture.time))
(define-fun .def_371 () Bool (= call_voiture.stop .def_370))
(define-fun .def_367 () Bool (<= 3 call_voiture.speed))
(define-fun .def_368 () Bool (= call_voiture.toofast .def_367))
(define-fun .def_365 () Bool (= env call_Sofar.Sofar))
(define-fun .def_362 () Bool (= meter call_voiture.meter))
(define-fun .def_358 () Bool (= second call_voiture.second))
(define-fun .def_354 () Bool (= move call_voiture.move))
(define-fun .def_350 () Bool (= time call_voiture.time))
(define-fun .def_346 () Bool (= speed call_voiture.speed))
(define-fun .def_343 () Bool (= dist call_voiture.dist))
(define-fun .def_340 () Bool (= bump call_voiture.bump))
(define-fun .def_336 () Bool (= stop call_voiture.stop))
(define-fun .def_332 () Bool (= toofast call_voiture.toofast))
(define-fun .def_326 () Bool (<= 0 speed))
(define-fun .def_323 () Bool (<= 4 speed))
(define-fun .def_324 () Bool (not .def_323))
(define-fun .def_319 () Bool (<= 11 dist))
(define-fun .def_320 () Bool (not .def_319))
(define-fun .def_318 () Bool (<= 0 dist))
(define-fun .def_321 () Bool (and .def_318 .def_320))
(define-fun .def_325 () Bool (and .def_321 .def_324))
(define-fun .def_327 () Bool (and .def_325 .def_326))
(define-fun .def_317 () Bool (not env))
(define-fun .def_328 () Bool (or .def_317 .def_327))
(define-fun .def_329 () Bool (= _OK_ .def_328))
(define-fun .def_333 () Bool (and .def_329 .def_332))
(define-fun .def_337 () Bool (and .def_333 .def_336))
(define-fun .def_341 () Bool (and .def_337 .def_340))
(define-fun .def_344 () Bool (and .def_341 .def_343))
(define-fun .def_347 () Bool (and .def_344 .def_346))
(define-fun .def_351 () Bool (and .def_347 .def_350))
(define-fun .def_355 () Bool (and .def_351 .def_354))
(define-fun .def_359 () Bool (and .def_355 .def_358))
(define-fun .def_363 () Bool (and .def_359 .def_362))
(define-fun .def_366 () Bool (and .def_363 .def_365))
(define-fun .def_369 () Bool (and .def_366 .def_368))
(define-fun .def_372 () Bool (and .def_369 .def_371))
(define-fun .def_375 () Bool (and .def_372 .def_374))
(define-fun .def_377 () Bool (and .def_375 .def_376))
(define-fun .def_379 () Bool (and .def_377 .def_378))
(define-fun .def_381 () Bool (and .def_379 .def_380))
(define-fun .def_394 () Bool (and .def_381 .def_393))
(define-fun .def_396 () Bool (and .def_394 .def_395))
(define-fun .def_398 () Bool (and .def_396 .def_397))
(define-fun .def_404 () Bool (and .def_398 .def_403))
(define-fun .def_406 () Bool (and .def_404 .def_405))
(define-fun .def_308 () Bool (<= 32767 dist))
(define-fun .def_309 () Bool (not .def_308))
(define-fun .def_311 () Bool (and .def_309 call_excludes2.excludes))
(define-fun .def_313 () Bool (= .def_311 call_Sofar.flby))
(define-fun .def_305 () Bool (= call_voiture.flby6 0))
(define-fun .def_302 () Bool (= call_voiture.flby5 0))
(define-fun .def_299 () Bool (= call_voiture.flby4 0))
(define-fun .def_294 () Bool (not call_voiture.flby2))
(define-fun .def_292 () Bool (not call_voiture.flby))
(define-fun .def_295 () Bool (and .def_292 .def_294))
(define-fun .def_297 () Bool (and .def_295 call_voiture.flby3))
(define-fun .def_300 () Bool (and .def_297 .def_299))
(define-fun .def_303 () Bool (and .def_300 .def_302))
(define-fun .def_306 () Bool (and .def_303 .def_305))
(define-fun .def_314 () Bool (and .def_306 .def_313))
(define-fun .def_407 () Bool (and .def_314 .def_406))
(assert .def_407)
